0 19 17 78 60 8 80 35 99 79
19 0 80 47 60 71 94 65 21 94
17 80 0 44 14 67 12 49 20 64
78 47 44 0 43 28 68 73 38 14
60 60 14 43 0 82 75 98 4 37
8 71 67 28 82 0 31 98 33 11
80 94 12 68 75 31 0 99 57 99
35 65 49 73 98 98 99 0 97 85
99 21 20 38 4 33 57 97 0 15
79 94 64 14 37 11 99 85 15 0
